20
587 233 220
75 73 69
66 56 40
64 51 41
90 52 28
73 33 28
91 76 60
54 45 28
107 81 56
63 53 44
88 75 50
79 76 20
116 71 66
84 52 35
61 56 22
54 53 31
86 85 53
84 71 29
80 52 41
83 33 26
99 60 38
thpack7_94